45
1 0 1
2 0 1
3 0 2
3 1 1
3 2 3
4 0 3
4 2 3
5 3 5
5 4 1
6 1 4
6 2 1
6 4 1
7 0 1
7 1 5
7 4 4
7 6 1
8 1 1
8 4 4
8 7 1
9 0 5
9 1 4
9 5 5
9 7 5
10 1 4
10 2 4
10 5 5
10 8 5
10 9 1
11 2 3
11 3 4
11 4 1
11 5 2
11 8 3
11 10 2
12 0 1
12 1 3
12 2 4
12 3 2
12 7 2
12 8 5
12 9 5
12 10 4
12 11 1
13 1 2
13 2 3
13 4 2
13 6 1
13 8 5
13 9 2
13 10 5
13 11 4
13 12 2
14 1 2
14 2 5
14 4 3
14 5 3
14 6 4
14 7 4
14 8 4
14 10 1
14 12 2
15 0 4
15 2 4
15 7 5
15 9 3
15 11 1
15 12 2
15 14 4
16 1 2
16 2 1
16 6 5
16 7 5
16 10 1
16 13 1
17 3 1
17 4 3
17 5 4
17 6 5
17 7 2
17 9 1
17 10 2
17 11 5
17 12 5
17 15 4
18 2 4
18 6 2
18 8 2
18 10 5
18 17 5
19 0 3
19 1 4
19 3 1
19 5 3
19 6 2
19 9 2
19 10 3
19 11 3
19 13 2
20 1 5
20 2 4
20 4 3
20 6 5
20 8 3
20 9 5
20 10 1
20 12 1
20 13 3
20 14 5
20 16 2
20 18 4
21 1 1
21 2 1
21 3 4
21 5 5
21 9 1
21 10 2
21 11 4
21 14 4
21 15 5
21 16 3
21 18 2
21 20 5
22 0 4
22 1 1
22 5 3
22 6 3
22 8 2
22 9 5
22 11 3
22 13 2
22 14 5
22 15 3
22 16 3
22 18 1
22 19 5
22 20 5
23 2 5
23 3 4
23 6 3
23 7 4
23 8 5
23 11 4
23 14 1
23 15 2
23 16 3
23 17 1
23 19 4
23 21 2
24 3 1
24 4 5
24 5 4
24 9 1
24 10 5
24 11 4
24 12 3
24 14 5
24 15 5
24 16 5
24 17 5
24 18 2
24 21 1
25 0 1
25 3 3
25 4 3
25 5 3
25 6 4
25 9 2
25 11 4
25 13 1
25 14 1
25 17 5
25 18 2
25 20 1
25 22 2
25 23 4
25 24 5
26 1 2
26 4 3
26 5 3
26 6 1
26 8 1
26 10 3
26 12 4
26 13 4
26 15 2
26 17 4
26 18 2
26 19 5
26 21 4
26 23 3
26 24 1
26 25 3
27 1 3
27 2 4
27 4 1
27 5 4
27 6 1
27 10 1
27 11 2
27 12 5
27 15 5
27 18 3
27 20 1
27 26 5
28 0 2
28 1 2
28 4 5
28 5 3
28 7 3
28 8 3
28 9 4
28 15 4
28 16 3
28 18 3
28 19 2
28 20 4
28 23 2
28 24 1
28 25 3
29 0 2
29 1 2
29 3 3
29 4 4
29 7 1
29 8 4
29 9 1
29 12 3
29 14 2
29 18 5
29 19 3
29 21 4
29 22 2
29 23 2
29 27 2
29 28 2
30 0 5
30 11 2
30 13 5
30 15 1
30 22 4
30 25 2
30 27 2
31 2 2
31 4 1
31 5 1
31 6 4
31 8 5
31 11 5
31 13 1
31 14 4
31 16 1
31 18 5
31 20 1
31 29 1
31 30 4
32 3 2
32 4 4
32 5 5
32 6 1
32 7 3
32 9 5
32 11 5
32 12 4
32 13 5
32 15 2
32 16 1
32 19 1
32 27 1
32 28 2
32 30 4
33 3 2
33 6 3
33 8 4
33 10 4
33 11 1
33 15 5
33 17 5
33 18 1
33 19 5
33 20 3
33 23 4
33 25 1
33 28 4
33 29 3
33 30 5
33 31 2
33 32 2
34 1 5
34 2 2
34 4 3
34 6 3
34 7 5
34 10 5
34 11 4
34 12 4
34 13 4
34 15 1
34 16 4
34 17 2
34 18 1
34 19 1
34 21 3
34 23 1
34 26 5
34 27 1
34 30 1
34 31 4
34 32 5
35 1 4
35 2 3
35 3 5
35 4 5
35 7 1
35 9 1
35 10 1
35 12 3
35 15 5
35 17 2
35 18 4
35 20 1
35 21 1
35 25 5
35 26 2
35 28 3
35 30 1
35 32 3
35 34 2
36 2 1
36 3 4
36 6 2
36 7 2
36 8 2
36 9 1
36 11 5
36 14 5
36 17 2
36 18 2
36 21 4
36 22 1
36 23 4
36 25 3
36 28 1
36 31 4
36 32 4
36 33 1
36 34 4
37 0 5
37 2 5
37 3 2
37 4 4
37 5 5
37 9 5
37 11 4
37 12 3
37 13 1
37 15 4
37 18 5
37 20 5
37 22 4
37 23 4
37 28 1
37 29 5
37 32 5
37 34 5
37 35 4
38 0 5
38 1 2
38 3 4
38 5 4
38 6 3
38 10 3
38 12 3
38 17 3
38 18 5
38 19 3
38 24 3
38 27 3
38 28 2
38 34 3
38 35 2
38 36 5
38 37 3
39 0 1
39 2 3
39 4 5
39 6 1
39 7 4
39 9 3
39 11 1
39 12 5
39 13 5
39 15 4
39 17 4
39 19 3
39 22 2
39 23 3
39 24 3
39 29 3
39 33 4
39 34 5
39 35 1
39 37 1
39 38 3
40 3 5
40 4 2
40 8 5
40 10 3
40 11 4
40 12 5
40 15 1
40 16 3
40 19 1
40 23 2
40 24 4
40 26 3
40 30 2
40 33 5
40 35 3
40 38 2
41 0 5
41 2 5
41 3 4
41 4 2
41 6 4
41 7 5
41 8 3
41 9 5
41 10 5
41 14 1
41 15 2
41 16 1
41 18 5
41 20 1
41 21 1
41 22 3
41 24 1
41 27 5
41 28 2
41 29 5
41 30 4
41 33 2
41 34 1
41 37 4
41 38 2
41 39 3
41 40 4
42 4 3
42 5 4
42 7 4
42 8 4
42 9 2
42 10 2
42 11 3
42 12 2
42 13 3
42 16 2
42 17 4
42 21 1
42 25 2
42 27 4
42 29 3
42 33 5
42 34 4
42 40 1
43 0 5
43 1 5
43 2 2
43 4 1
43 8 3
43 9 5
43 11 5
43 13 2
43 15 5
43 17 3
43 23 2
43 26 1
43 27 4
43 32 1
43 33 2
43 36 5
43 39 3
43 41 5
43 42 2
44 0 4
44 1 2
44 2 3
44 3 5
44 4 1
44 5 1
44 9 4
44 10 2
44 12 4
44 15 2
44 16 5
44 17 3
44 19 2
44 25 5
44 26 3
44 33 5
44 36 5
44 38 2
44 39 4
44 40 2
44 42 2
44 43 1
